% Generated FlatZinc statistics:
%%%mzn-stat: paths=99078
%%%mzn-stat: flatBoolVars=1726
%%%mzn-stat: flatIntVars=4347
%%%mzn-stat: flatSetVars=2500
%%%mzn-stat: flatIntConstraints=4997
%%%mzn-stat: flatSetConstraints=3526
%%%mzn-stat: evaluatedReifiedConstraints=1726
%%%mzn-stat: method="minimize"
%%%mzn-stat: flatTime=13.0678
%%%mzn-stat-end
w = 3520; 
link_objective = 44; 
cpu_objective = 80; 
services2locs = [7, 4, 14, 12, 2, 9, 11, 10, 8, 13, 6, 4, 6, 9, 4, 4, 5, 3, 8, 6, 10, 1, 2, 3, 14, 7, 12, 10, 5, 9, 14, 9, 6, 3, 7, 13, 3, 12, 12, 1, 14, 8, 5, 13, 8, 2, 10, 2, 11, 13];
locations2names = ["ECU1", "ECU2", "ECU3", "DM1", "DM2", "DM3", "CAM1", "CAM2", "CAM3", "CAM4", "Display1", "Display2", "Display3", "Display4", "Switch1", "Switch2", "Switch3", "Switch4", "Switch5"];
services2names = ["S3_Video_1", "S4_BE_1", "S1_C&C_2_1", "S4_BE_2", "S1_C&C_2_2", "S4_BE_3", "S1_C&C_2_3", "S1_C&C_1_1", "S3_Video_2", "S1_C&C_1_2", "S2_Audio_1", "S2_Audio_2", "S3_Video_3", "S2_Audio_3", "S1_C&C_2_4", "S3_Video_4", "S4_BE_4", "S4_BE_5", "S3_Video_5", "S4_BE_6", "S1_C&C_2_5", "S2_Audio_4", "S2_Audio_5", "S4_BE_7", "S4_BE_8", "S3_Video_6", "S3_Video_7", "S1_C&C_2_6", "S4_BE_9", "S3_Video_8", "S2_Audio_6", "S3_Video_9", "S2_Audio_7", "S1_C&C_1_3", "S1_C&C_1_4", "S4_BE_10", "S1_C&C_1_5", "S1_C&C_1_6", "S4_BE_11", "S4_BE_12", "S1_C&C_2_7", "S1_C&C_1_7", "S1_C&C_1_8", "S1_C&C_1_9", "S1_C&C_1_10", "S1_C&C_2_8", "S4_BE_13", "S4_BE_14", "S4_BE_15", "S2_Audio_8"];
cpu_usage = [40, 80, 80, 80, 60, 80, 60, 80, 80, 80, 40, 80, 80, 80, 0, 0, 0, 0, 0]; 
slack = [84277504, 57527680, 68182480, 99774784, 75337248, 55731984, 75562464, 97983104, 97550080, 97445472, 94995552, 70720336, 91558896, 93701792, 95840240, 984590800, 94733760, 80518880]; 
charge = [15, 42, 31, 0, 24, 44, 24, 2, 2, 2, 5, 29, 8, 6, 4, 1, 5, 19]; 
----------
%%%mzn-stat: initTime=0.255363
%%%mzn-stat: solveTime=46.9839
%%%mzn-stat: solutions=15
%%%mzn-stat: variables=8578
%%%mzn-stat: propagators=8523
%%%mzn-stat: propagations=21055569
%%%mzn-stat: nodes=11958
%%%mzn-stat: failures=5916
%%%mzn-stat: restarts=0
%%%mzn-stat: peakDepth=58
%%%mzn-stat-end
%%%mzn-stat: nSolutions=1
%%%mzn-stat-end
